52 31 10 70 30 32 90 63 64 49 36 47 48 82 7 88 62 11 19 46 8 45 17 84 5 60 83 18 89 
27 69 1 50 76 77 12 28 
2 57 15 41 22 75 56 23 67 39 54 80 68 3 79 33 9 35 71 65 66 20 51 81 78 34 29 24 4 55 25 26 
94 95 92 98 91 44 14 38 86 16 61 85 93 99 97 87 13 58 
53 40 21 73 72 74 43 42 100 37 59 96 6 
